NAME : eil101.tsp
TYPE : TOUR
DIMENSION : 101
TOUR_LENGTH : 662.729893587313
TOUR_SECTION
1
69
27
101
13
95
94
6
89
52
7
82
48
19
11
64
49
36
47
46
8
45
83
18
60
5
84
17
86
38
14
44
16
61
91
100
37
98
85
93
99
96
59
92
97
87
42
43
15
57
2
73
21
72
74
22
41
75
56
23
67
39
4
25
55
54
24
29
78
34
35
71
65
66
32
90
63
10
62
88
31
70
30
20
51
9
81
33
79
3
77
68
80
12
26
40
58
53
28
76
50
-1
